   30000
     225
   10112         1
   10111         1
   10110         1
   10109         1
   10108         1
   10107         1
   10106         1
   10105         1
   10104         1
   10103         1
   10102         1
   10101         1
   10100         1
   10099         1
   10098         1
   10097         1
   10096         1
   10095         1
   10094         1
   10093         1
   10092         1
   10091         1
   10090         1
   10089         1
   10088         1
   10087         1
   10086         1
   10085         1
   10084         1
   10083         1
   10082         1
   10081         1
   10080         1
   10079         1
   10078         1
   10077         1
   10076         1
   10075         1
   10074         1
   10073         1
   10072         1
   10071         1
   10070         1
   10069         1
   10068         1
   10067         1
   10066         1
   10065         1
   10064         1
   10063         1
   10062         1
   10061         1
   10060         1
   10059         1
   10058         1
   10057         1
   10056         1
   10055         1
   10054         1
   10053         1
   10052         1
   10051         1
   10050         1
   10049         1
   10048         1
   10047         1
   10046         1
   10045         1
   10044         1
   10043         1
   10042         1
   10041         1
   10040         1
   10039         1
   10038         1
   10037         1
   10036         1
   10035         1
   10034         1
   10033         1
   10032         1
   10031         1
   10030         1
   10029         1
   10028         1
   10027         1
   10026         1
   10025         1
   10024         1
   10023         1
   10022         1
   10021         1
   10020         1
   10019         1
   10018         1
   10017         1
   10016         1
   10015         1
   10014         1
   10013         1
   10012         1
   10011         1
   10010         1
   10009         1
   10008         1
   10007         1
   10006         1
   10005         1
   10004         1
   10003         1
   10002         1
   10001         1
   10000         1
    9999         1
    9998         1
    9997         1
    9996         1
    9995         1
    9994         1
    9993         1
    9992         1
    9991         1
    9990         1
    9989         1
    9988         1
    9987         1
    9986         1
    9985         1
    9984         1
    9983         1
    9982         1
    9981         1
    9980         1
    9979         1
    9978         1
    9977         1
    9976         1
    9975         1
    9974         1
    9973         1
    9972         1
    9971         1
    9970         1
    9969         1
    9968         1
    9967         1
    9966         1
    9965         1
    9964         1
    9963         1
    9962         1
    9961         1
    9960         1
    9959         1
    9958         1
    9957         1
    9956         1
    9955         1
    9954         1
    9953         1
    9952         1
    9951         1
    9950         1
    9949         1
    9948         1
    9947         1
    9946         1
    9945         1
    9944         1
    9943         1
    9942         1
    9941         1
    9940         1
    9939         1
    9938         1
    9937         1
    9936         1
    9935         1
    9934         1
    9933         1
    9932         1
    9931         1
    9930         1
    9929         1
    9928         1
    9927         1
    9926         1
    9925         1
    9924         1
    9923         1
    9922         1
    9921         1
    9920         1
    9919         1
    9918         1
    9917         1
    9916         1
    9915         1
    9914         1
    9913         1
    9912         1
    9911         1
    9910         1
    9909         1
    9908         1
    9907         1
    9906         1
    9905         1
    9904         1
    9903         1
    9902         1
    9901         1
    9900         1
    9899         1
    9898         1
    9897         1
    9896         1
    9895         1
    9894         1
    9893         1
    9892         1
    9891         1
    9890         1
    9889         1
    9888         1
